feasible solution found by trivial heuristic after 0.2 seconds, objective value 1.529520e+05
presolving:
(round 1, fast)       672 del vars, 28908 del conss, 0 add conss, 0 chg bounds, 0 chg sides, 0 chg coeffs, 0 upgd conss, 0 impls, 0 clqs
(round 2, fast)       28572 del vars, 28908 del conss, 0 add conss, 0 chg bounds, 0 chg sides, 0 chg coeffs, 0 upgd conss, 0 impls, 0 clqs
   (0.5s) running MILP presolver
   (0.5s) MILP presolver found nothing
(round 3, exhaustive) 28572 del vars, 28908 del conss, 0 add conss, 0 chg bounds, 0 chg sides, 0 chg coeffs, 750 upgd conss, 0 impls, 0 clqs
   (0.7s) probing: 51/3000 (1.7%) - 0 fixings, 0 aggregations, 0 implications, 0 bound changes
   (0.7s) probing aborted: 50/50 successive totally useless probings
   (0.7s) symmetry computation started: requiring (bin +, int -, cont +), (fixed: bin -, int +, cont -)
   (0.7s) no symmetry present
presolving (4 rounds: 4 fast, 2 medium, 2 exhaustive):
 28572 deleted vars, 28908 deleted constraints, 0 added constraints, 0 tightened bounds, 0 added holes, 0 changed sides, 0 changed coefficients
 0 implications, 0 cliques
presolved problem has 3000 variables (3000 bin, 0 int, 0 impl, 0 cont) and 750 constraints
    750 constraints of type <logicor>
transformed objective value is always integral (scale: 1)
Presolving Time: 0.62

 time | node  | left  |LP iter|LP it/n|mem/heur|mdpt |vars |cons |rows |cuts |sepa|confs|strbr|  dualbound   | primalbound  |  gap   | compl. 
t 0.8s|     1 |     0 |     0 |     - | trivial|   0 |3000 | 750 |   0 |   0 |  0 |   0 |   0 |-2.790000e+04 | 1.250520e+05 |    Inf | unknown
p 0.8s|     1 |     0 |     0 |     - |   locks|   0 |3000 | 750 | 750 |   0 |  0 |   0 |   0 |-2.790000e+04 |-2.674900e+04 |   4.30%| unknown
  1.0s|     1 |     0 |   962 |     - |   221M |   0 |3000 | 750 | 750 |   0 |  0 |   0 |   0 |-2.786601e+04 |-2.674900e+04 |   4.18%| unknown
r 1.0s|     1 |     0 |   962 |     - |simplero|   0 |3000 | 750 | 750 |   0 |  0 |   0 |   0 |-2.786601e+04 |-2.770500e+04 |   0.58%| unknown
r 1.0s|     1 |     0 |   962 |     - |rounding|   0 |3000 | 750 | 750 |   0 |  0 |   0 |   0 |-2.786601e+04 |-2.770600e+04 |   0.58%| unknown
r 1.0s|     1 |     0 |   962 |     - |shifting|   0 |3000 | 750 | 750 |   0 |  0 |   0 |   0 |-2.786601e+04 |-2.770800e+04 |   0.57%| unknown
i 1.0s|     1 |     0 |   962 |     - |  oneopt|   0 |3000 | 750 | 750 |   0 |  0 |   0 |   0 |-2.786601e+04 |-2.784900e+04 |   0.06%| unknown
  1.1s|     1 |     0 |   962 |     - |   222M |   0 |3000 | 750 | 750 |   0 |  2 |   0 |   0 |-2.786601e+04 |-2.784900e+04 |   0.06%| unknown
  1.1s|     1 |     0 |   962 |     - |   222M |   0 |3000 | 750 | 750 |   0 |  2 |   0 |   0 |-2.786601e+04 |-2.784900e+04 |   0.06%| unknown
L 3.3s|     1 |     0 |  2627 |     - |    rens|   0 |3000 | 750 | 750 |   0 |  4 |   0 |   0 |-2.786601e+04 |-2.785700e+04 |   0.03%| unknown
(run 1, node 1) restarting after 2465 global fixings of integer variables

presolving:
(round 1, fast)       2465 del vars, 0 del conss, 0 add conss, 0 chg bounds, 0 chg sides, 185007 chg coeffs, 0 upgd conss, 0 impls, 0 clqs
   (4.1s) running MILP presolver
   (4.1s) MILP presolver found nothing
presolving (2 rounds: 2 fast, 1 medium, 1 exhaustive):
 2465 deleted vars, 0 deleted constraints, 0 added constraints, 0 tightened bounds, 0 added holes, 0 changed sides, 185007 changed coefficients
 0 implications, 0 cliques
presolved problem has 535 variables (535 bin, 0 int, 0 impl, 0 cont) and 750 constraints
    750 constraints of type <logicor>
transformed objective value is always integral (scale: 1)
Presolving Time: 1.40
transformed 100/100 original solutions to the transformed problem space

 time | node  | left  |LP iter|LP it/n|mem/heur|mdpt |vars |cons |rows |cuts |sepa|confs|strbr|  dualbound   | primalbound  |  gap   | compl. 
  4.6s|     1 |     0 |  3153 |     - |   272M |   0 | 535 | 750 | 750 |   0 |  0 |   0 |   0 |-2.786601e+04 |-2.785700e+04 |   0.03%| unknown
  4.6s|     1 |     0 |  3153 |     - |   272M |   0 | 535 | 750 | 750 |   0 |  0 |   0 |   0 |-2.786601e+04 |-2.785700e+04 |   0.03%| unknown
  4.6s|     1 |     0 |  3190 |     - |   272M |   0 | 535 | 750 | 751 |   1 |  1 |   0 |   0 |-2.786587e+04 |-2.785700e+04 |   0.03%| unknown
  4.6s|     1 |     0 |  3190 |     - |   272M |   0 | 535 | 750 | 751 |   1 |  1 |   0 |   0 |-2.786587e+04 |-2.785700e+04 |   0.03%| unknown
  4.7s|     1 |     0 |  3228 |     - |   272M |   0 | 535 | 750 | 752 |   2 |  2 |   0 |   0 |-2.786582e+04 |-2.785700e+04 |   0.03%| unknown
  4.7s|     1 |     0 |  3228 |     - |   272M |   0 | 535 | 750 | 752 |   2 |  2 |   0 |   0 |-2.786582e+04 |-2.785700e+04 |   0.03%| unknown
  4.7s|     1 |     0 |  3250 |     - |   273M |   0 | 535 | 750 | 753 |   3 |  3 |   0 |   0 |-2.786580e+04 |-2.785700e+04 |   0.03%| unknown
  4.8s|     1 |     0 |  3272 |     - |   275M |   0 | 535 | 750 | 754 |   4 |  4 |   0 |   0 |-2.786577e+04 |-2.785700e+04 |   0.03%| unknown
  4.8s|     1 |     0 |  3272 |     - |   275M |   0 | 535 | 750 | 754 |   4 |  4 |   0 |   0 |-2.786577e+04 |-2.785700e+04 |   0.03%| unknown
  4.8s|     1 |     0 |  3298 |     - |   277M |   0 | 535 | 750 | 755 |   5 |  5 |   0 |   0 |-2.786574e+04 |-2.785700e+04 |   0.03%| unknown
  4.9s|     1 |     0 |  3298 |     - |   277M |   0 | 535 | 750 | 755 |   5 |  5 |   0 |   0 |-2.786574e+04 |-2.785700e+04 |   0.03%| unknown
  4.9s|     1 |     0 |  3332 |     - |   278M |   0 | 535 | 750 | 756 |   6 |  6 |   0 |   0 |-2.786572e+04 |-2.785700e+04 |   0.03%| unknown
  5.0s|     1 |     0 |  3354 |     - |   281M |   0 | 535 | 750 | 757 |   7 |  7 |   0 |   0 |-2.786571e+04 |-2.785700e+04 |   0.03%| unknown
  5.0s|     1 |     0 |  3377 |     - |   282M |   0 | 535 | 750 | 758 |   8 |  8 |   0 |   0 |-2.786569e+04 |-2.785700e+04 |   0.03%| unknown
  5.0s|     1 |     0 |  3377 |     - |   282M |   0 | 535 | 750 | 758 |   8 |  8 |   0 |   0 |-2.786569e+04 |-2.785700e+04 |   0.03%| unknown
 time | node  | left  |LP iter|LP it/n|mem/heur|mdpt |vars |cons |rows |cuts |sepa|confs|strbr|  dualbound   | primalbound  |  gap   | compl. 
  5.1s|     1 |     0 |  3395 |     - |   284M |   0 | 535 | 750 | 759 |   9 |  9 |   0 |   0 |-2.786569e+04 |-2.785700e+04 |   0.03%| unknown
  5.1s|     1 |     0 |  3395 |     - |   284M |   0 | 535 | 750 | 759 |   9 |  9 |   0 |   0 |-2.786569e+04 |-2.785700e+04 |   0.03%| unknown
  5.2s|     1 |     0 |  3411 |     - |   285M |   0 | 535 | 750 | 760 |  10 | 10 |   0 |   0 |-2.786569e+04 |-2.785700e+04 |   0.03%| unknown
  5.2s|     1 |     0 |  3425 |     - |   285M |   0 | 535 | 750 | 761 |  11 | 11 |   0 |   0 |-2.786568e+04 |-2.785700e+04 |   0.03%| unknown
  5.2s|     1 |     0 |  3438 |     - |   285M |   0 | 535 | 750 | 762 |  12 | 12 |   0 |   0 |-2.786568e+04 |-2.785700e+04 |   0.03%| unknown
  5.2s|     1 |     0 |  3459 |     - |   285M |   0 | 535 | 750 | 763 |  13 | 13 |   0 |   0 |-2.786568e+04 |-2.785700e+04 |   0.03%| unknown
  5.2s|     1 |     0 |  3476 |     - |   286M |   0 | 535 | 750 | 764 |  14 | 14 |   0 |   0 |-2.786567e+04 |-2.785700e+04 |   0.03%| unknown
  5.2s|     1 |     0 |  3503 |     - |   286M |   0 | 535 | 750 | 765 |  15 | 15 |   0 |   0 |-2.786566e+04 |-2.785700e+04 |   0.03%| unknown
  5.3s|     1 |     0 |  3515 |     - |   286M |   0 | 535 | 750 | 766 |  16 | 16 |   0 |   0 |-2.786565e+04 |-2.785700e+04 |   0.03%| unknown
  5.3s|     1 |     0 |  3534 |     - |   286M |   0 | 535 | 750 | 767 |  17 | 17 |   0 |   0 |-2.786565e+04 |-2.785700e+04 |   0.03%| unknown
  5.3s|     1 |     0 |  3555 |     - |   286M |   0 | 535 | 750 | 768 |  18 | 18 |   0 |   0 |-2.786564e+04 |-2.785700e+04 |   0.03%| unknown
  5.3s|     1 |     0 |  3555 |     - |   286M |   0 | 535 | 750 | 768 |  18 | 18 |   0 |   0 |-2.786564e+04 |-2.785700e+04 |   0.03%| unknown
  5.3s|     1 |     0 |  3574 |     - |   286M |   0 | 535 | 750 | 769 |  19 | 19 |   0 |   0 |-2.786563e+04 |-2.785700e+04 |   0.03%| unknown
  5.3s|     1 |     0 |  3589 |     - |   286M |   0 | 535 | 750 | 770 |  20 | 20 |   0 |   0 |-2.786563e+04 |-2.785700e+04 |   0.03%| unknown
  5.4s|     1 |     0 |  3625 |     - |   286M |   0 | 535 | 750 | 771 |  21 | 21 |   0 |   0 |-2.786561e+04 |-2.785700e+04 |   0.03%| unknown
 time | node  | left  |LP iter|LP it/n|mem/heur|mdpt |vars |cons |rows |cuts |sepa|confs|strbr|  dualbound   | primalbound  |  gap   | compl. 
  5.4s|     1 |     0 |  3654 |     - |   286M |   0 | 535 | 750 | 772 |  22 | 22 |   0 |   0 |-2.786560e+04 |-2.785700e+04 |   0.03%| unknown
  5.4s|     1 |     0 |  3681 |     - |   286M |   0 | 535 | 750 | 773 |  23 | 23 |   0 |   0 |-2.786557e+04 |-2.785700e+04 |   0.03%| unknown
  5.4s|     1 |     0 |  3698 |     - |   286M |   0 | 535 | 750 | 774 |  24 | 24 |   0 |   0 |-2.786557e+04 |-2.785700e+04 |   0.03%| unknown
  5.4s|     1 |     0 |  3709 |     - |   286M |   0 | 535 | 750 | 775 |  25 | 25 |   0 |   0 |-2.786557e+04 |-2.785700e+04 |   0.03%| unknown
  5.4s|     1 |     0 |  3709 |     - |   286M |   0 | 535 | 750 | 775 |  25 | 25 |   0 |   0 |-2.786557e+04 |-2.785700e+04 |   0.03%| unknown
(run 2, node 1) restarting after 245 global fixings of integer variables

(restart) converted 25 cuts from the global cut pool into linear constraints

presolving:
(round 1, fast)       245 del vars, 0 del conss, 0 add conss, 0 chg bounds, 0 chg sides, 18172 chg coeffs, 0 upgd conss, 0 impls, 0 clqs
   (7.5s) running MILP presolver
   (7.5s) MILP presolver found nothing
(round 2, exhaustive) 245 del vars, 0 del conss, 0 add conss, 0 chg bounds, 0 chg sides, 18172 chg coeffs, 20 upgd conss, 0 impls, 0 clqs
presolving (3 rounds: 3 fast, 2 medium, 2 exhaustive):
 245 deleted vars, 0 deleted constraints, 0 added constraints, 0 tightened bounds, 0 added holes, 0 changed sides, 18172 changed coefficients
 0 implications, 0 cliques
presolved problem has 290 variables (290 bin, 0 int, 0 impl, 0 cont) and 776 constraints
     20 constraints of type <knapsack>
      5 constraints of type <linear>
    751 constraints of type <logicor>
transformed objective value is always integral (scale: 1)
Presolving Time: 2.17
transformed 98/100 original solutions to the transformed problem space

 time | node  | left  |LP iter|LP it/n|mem/heur|mdpt |vars |cons |rows |cuts |sepa|confs|strbr|  dualbound   | primalbound  |  gap   | compl. 
  8.0s|     1 |     0 |  5833 |     - |   278M |   0 | 290 | 776 | 775 |   0 |  0 |   1 |   0 |-2.786557e+04 |-2.785700e+04 |   0.03%| unknown
  8.1s|     1 |     0 |  5875 |     - |   278M |   0 | 290 | 776 | 776 |   1 |  1 |   1 |   0 |-2.786552e+04 |-2.785700e+04 |   0.03%| unknown
  8.2s|     1 |     0 |  5912 |     - |   278M |   0 | 290 | 776 | 777 |   2 |  2 |   1 |   0 |-2.786550e+04 |-2.785700e+04 |   0.03%| unknown
  8.2s|     1 |     0 |  5937 |     - |   278M |   0 | 290 | 776 | 778 |   3 |  3 |   1 |   0 |-2.786549e+04 |-2.785700e+04 |   0.03%| unknown
  8.3s|     1 |     0 |  5937 |     - |   278M |   0 | 290 | 776 | 778 |   3 |  3 |   1 |   0 |-2.786549e+04 |-2.785700e+04 |   0.03%| unknown
  8.3s|     1 |     0 |  6001 |     - |   280M |   0 | 290 | 776 | 779 |   4 |  4 |   1 |   0 |-2.786546e+04 |-2.785700e+04 |   0.03%| unknown
  8.4s|     1 |     0 |  6027 |     - |   282M |   0 | 290 | 776 | 780 |   5 |  5 |   1 |   0 |-2.786546e+04 |-2.785700e+04 |   0.03%| unknown
  8.5s|     1 |     0 |  6054 |     - |   283M |   0 | 290 | 776 | 781 |   6 |  6 |   1 |   0 |-2.786545e+04 |-2.785700e+04 |   0.03%| unknown
  8.5s|     1 |     0 |  6054 |     - |   283M |   0 | 290 | 776 | 781 |   6 |  6 |   1 |   0 |-2.786545e+04 |-2.785700e+04 |   0.03%| unknown
  8.6s|     1 |     0 |  6071 |     - |   285M |   0 | 290 | 776 | 782 |   7 |  7 |   1 |   0 |-2.786544e+04 |-2.785700e+04 |   0.03%| unknown
  8.7s|     1 |     0 |  6151 |     - |   286M |   0 | 290 | 776 | 783 |   8 |  8 |   1 |   0 |-2.786542e+04 |-2.785700e+04 |   0.03%| unknown
  8.8s|     1 |     0 |  6192 |     - |   288M |   0 | 290 | 776 | 784 |   9 |  9 |   1 |   0 |-2.786540e+04 |-2.785700e+04 |   0.03%| unknown
  8.9s|     1 |     0 |  6219 |     - |   289M |   0 | 290 | 776 | 782 |  10 | 10 |   1 |   0 |-2.786540e+04 |-2.785700e+04 |   0.03%| unknown
  9.0s|     1 |     0 |  6247 |     - |   289M |   0 | 290 | 776 | 783 |  11 | 11 |   1 |   0 |-2.786539e+04 |-2.785700e+04 |   0.03%| unknown
  9.0s|     1 |     0 |  6287 |     - |   289M |   0 | 290 | 776 | 784 |  12 | 12 |   1 |   0 |-2.786538e+04 |-2.785700e+04 |   0.03%| unknown
 time | node  | left  |LP iter|LP it/n|mem/heur|mdpt |vars |cons |rows |cuts |sepa|confs|strbr|  dualbound   | primalbound  |  gap   | compl. 
  9.1s|     1 |     0 |  6306 |     - |   289M |   0 | 290 | 776 | 785 |  13 | 13 |   1 |   0 |-2.786538e+04 |-2.785700e+04 |   0.03%| unknown
  9.1s|     1 |     0 |  6328 |     - |   290M |   0 | 290 | 776 | 786 |  14 | 14 |   1 |   0 |-2.786538e+04 |-2.785700e+04 |   0.03%| unknown
  9.2s|     1 |     0 |  6337 |     - |   290M |   0 | 290 | 776 | 787 |  15 | 15 |   1 |   0 |-2.786538e+04 |-2.785700e+04 |   0.03%| unknown
  9.2s|     1 |     0 |  6355 |     - |   290M |   0 | 290 | 776 | 783 |  16 | 16 |   1 |   0 |-2.786538e+04 |-2.785700e+04 |   0.03%| unknown
  9.3s|     1 |     0 |  6366 |     - |   290M |   0 | 290 | 776 | 784 |  17 | 17 |   1 |   0 |-2.786538e+04 |-2.785700e+04 |   0.03%| unknown
  9.3s|     1 |     0 |  6382 |     - |   290M |   0 | 290 | 776 | 785 |  18 | 18 |   1 |   0 |-2.786538e+04 |-2.785700e+04 |   0.03%| unknown
  9.3s|     1 |     0 |  6393 |     - |   290M |   0 | 290 | 776 | 786 |  19 | 19 |   1 |   0 |-2.786538e+04 |-2.785700e+04 |   0.03%| unknown
  9.4s|     1 |     0 |  6404 |     - |   290M |   0 | 290 | 776 | 787 |  20 | 20 |   1 |   0 |-2.786538e+04 |-2.785700e+04 |   0.03%| unknown
  9.4s|     1 |     0 |  6420 |     - |   290M |   0 | 290 | 776 | 788 |  21 | 21 |   1 |   0 |-2.786538e+04 |-2.785700e+04 |   0.03%| unknown
 11.1s|     1 |     2 |  7798 |     - |   290M |   0 | 290 | 778 | 788 |  21 | 22 |   3 |  34 |-2.786497e+04 |-2.785700e+04 |   0.03%| unknown
*13.4s|    61 |    12 | 14585 | 183.7 |strongbr|  12 | 290 | 882 | 776 |  64 |  1 | 107 | 286 |-2.786371e+04 |-2.785800e+04 |   0.02%|  17.87%
 14.0s|   100 |    17 | 17520 | 141.9 |   307M |  12 | 290 | 910 | 771 |  72 |  2 | 135 | 333 |-2.786371e+04 |-2.785800e+04 |   0.02%|  28.83%
 15.7s|   200 |    25 | 24853 | 107.8 |   311M |  14 | 290 | 991 | 771 | 103 |  1 | 216 | 463 |-2.786323e+04 |-2.785800e+04 |   0.02%|  41.51%
 17.1s|   300 |    51 | 34652 | 104.5 |   312M |  14 | 290 |1054 | 771 | 105 |  1 | 279 | 528 |-2.786213e+04 |-2.785800e+04 |   0.01%|  54.17%
 18.4s|   400 |    77 | 43323 | 100.1 |   315M |  16 | 290 |1114 | 777 | 124 |  7 | 342 | 592 |-2.786144e+04 |-2.785800e+04 |   0.01%|  65.66%
 time | node  | left  |LP iter|LP it/n|mem/heur|mdpt |vars |cons |rows |cuts |sepa|confs|strbr|  dualbound   | primalbound  |  gap   | compl. 
 19.9s|   500 |    89 | 50698 |  94.8 |   317M |  16 | 290 |1152 | 771 | 167 |  1 | 380 | 627 |-2.786070e+04 |-2.785800e+04 |   0.01%|  74.28%
 21.2s|   600 |    63 | 56421 |  88.6 |   316M |  16 | 290 |1164 | 777 | 218 |  1 | 392 | 636 |-2.786024e+04 |-2.785800e+04 |   0.01%|  85.51%
 21.6s|   700 |    17 | 60199 |  81.3 |   316M |  16 | 290 |1180 | 776 | 229 |  0 | 408 | 649 |-2.785970e+04 |-2.785800e+04 |   0.01%|  92.14%

SCIP Status        : problem is solved [optimal solution found]
Solving Time (sec) : 21.67
Solving Nodes      : 719 (total of 721 nodes in 3 runs)
Primal Bound       : -2.78580000000000e+04 (390 solutions)
Dual Bound         : -2.78580000000000e+04
Gap                : 0.00 %
Solve Status: optimal
Solve Time: 21.69 seconds
